InboundTrucks  = 8;
OutboundTrucks = 5;
InboundDoors   = 4;
OutboundDoors  = 4;
ReleaseTime    = [47,8,1,20,17,14,15,7];
UnloadTime     = [15,11,5,45,24,11,42,23];
LoadTime       = [7,5,30,29,30];
TransferTime   = [| 20,22,21,0,50 | 0,37,0,0,0 | 0,0,0,0,14 | 24,0,0,0,0 | 0,0,0,32,27 | 0,0,50,25,34 | 50,0,30,0,0 | 12,0,0,46,0 |];
